
        $ From http://www.csplib.org/Problems/prob009/data/helmut.pdf
        $ Problem number 136
        $ Sequence length : 25
        language ESSENCE' 1.0
        letting sizemaster be 421
        letting sizes be sequence(5,11,12,17,18,20,23,26,29,36,38,40,44,51,55,59,72,92,97,102,105,107,117,199,222)
        